
Gurobi 8.1.1 (mac64, Python) logging started Thu Nov  7 15:41:53 2019

Academic license - for non-commercial use only

Gurobi 8.1.1 (mac64, Python) logging started Thu Nov  7 15:55:23 2019

Academic license - for non-commercial use only
